objective value:                                 -252
t_x6                                                1 	(obj:-100)
t_x49                                               1 	(obj:-100)
t_x133                                              1 	(obj:-100)
t_y2_49                                             1 	(obj:1)
t_y66_133                                           1 	(obj:1)
t_y49_123                                           1 	(obj:1)
t_y49_205                                           1 	(obj:1)
t_y49_103                                           1 	(obj:1)
t_y6_104                                            1 	(obj:1)
t_y6_99                                             1 	(obj:1)
t_y96_133                                           1 	(obj:1)
t_y49_217                                           1 	(obj:1)
t_y101_133                                          1 	(obj:1)
t_y49_115                                           1 	(obj:1)
t_y133_209                                          1 	(obj:1)
t_y38_133                                           1 	(obj:1)
t_y6_82                                             1 	(obj:1)
t_y6_85                                             1 	(obj:1)
t_y6_166                                            1 	(obj:1)
t_y32_133                                           1 	(obj:1)
t_y133_149                                          1 	(obj:1)
t_y6_187                                            1 	(obj:1)
t_y6_63                                             1 	(obj:1)
t_y133_228                                          1 	(obj:1)
t_y49_194                                           1 	(obj:1)
t_y49_185                                           1 	(obj:1)
t_y42_49                                            1 	(obj:1)
t_y133_143                                          1 	(obj:1)
t_y49_90                                            1 	(obj:1)
t_y14_133                                           1 	(obj:1)
t_y50_133                                           1 	(obj:1)
t_y6_60                                             1 	(obj:1)
t_y6_46                                             1 	(obj:1)
t_y6_150                                            1 	(obj:1)
t_y8_133                                            1 	(obj:1)
t_y6_198                                            1 	(obj:1)
t_y49_163                                           1 	(obj:1)
t_y6_165                                            1 	(obj:1)
t_y41_133                                           1 	(obj:1)
t_y6_233                                            1 	(obj:1)
t_y6_120                                            1 	(obj:1)
t_y6_11                                             1 	(obj:1)
t_y6_219                                            1 	(obj:1)
t_y6_106                                            1 	(obj:1)
t_y29_49                                            1 	(obj:1)
t_y49_169                                           1 	(obj:1)
t_y6_154                                            1 	(obj:1)
t_y6_39                                             1 	(obj:1)
t_y6_247                                            1 	(obj:1)
t_y6_121                                            1 	(obj:1)
t_y133_197                                          1 	(obj:1)
